 Ti Si O
    1.000
    10.0   0.00  0.00
    0.00   10.0  0.00
    0.00   0.00  30.0
  Ti  Si  O
   1   1   1
Direct
 0.1  0.1  0.1
 0.0  0.0  0.0
 0.2  0.2  0.0


